5
40
127
40	24
1	1	17	3	
2	4	5	11	11	5	6	3	8	2	
3	4	8	9	12	4	16	2	6	2	
4	2	9	4	5	2	
5	4	7	10	9	5	5	5	8	4	
6	3	5	7	11	5	5	4	
7	2	6	10	6	3	
8	3	6	11	10	3	8	2	
9	1	6	5	
10	1	5	3	
11	2	5	10	8	4	
12	5	10	5	7	5	7	5	8	4	9	2	
13	3	10	4	24	3	16	3	
14	2	6	12	23	2	
15	1	4	4	
16	3	10	4	7	3	10	2	
17	1	11	2	
18	4	7	12	7	5	18	3	7	3	
19	5	6	9	15	3	6	3	6	3	6	3	
20	2	8	4	7	2	
21	4	6	8	7	6	4	3	7	2	
22	5	4	8	8	4	10	3	5	3	9	2	
23	1	6	4	
24	5	14	4	9	4	7	4	9	3	5	3	
25	3	11	6	12	4	8	3	
26	4	22	3	16	3	12	3	5	3	
27	5	5	6	13	4	9	4	9	3	11	2	
28	4	7	9	15	4	7	2	4	2	
29	5	11	6	6	5	6	5	15	3	8	3	
30	3	6	7	7	3	8	2	
31	5	5	9	6	5	21	4	10	3	4	3	
32	5	6	8	7	6	11	5	5	4	7	3	
33	4	4	10	7	5	4	4	11	2	
34	3	5	8	9	4	7	3	
35	5	8	6	7	6	10	5	11	4	8	2	
36	2	8	5	9	4	
37	3	15	4	6	3	5	3	
38	3	4	5	13	4	21	2	
39	3	5	6	5	4	8	2	
40	2	9	4	6	4	
